32	0

0	2	3	2
1	2	4	5
1	2	4	5
5	1	6
9	1	7
3	1	7
5	1	8
3	1	9
7	1	10
1	1	11
9	2	12	14
3	2	13	15
7	2	16	18
9	1	15
9	2	16	18
5	1	17
4	3	19	21	23
8	3	19	21	23
3	2	20	22
4	1	24
4	1	22
8	1	24
10	1	24
3	2	25	26
9	1	27
9	1	27
1	2	28	29
10	1	31
3	1	30
7	1	31
2	1	32
0	0
